proyfinal/src/viki/013/experimentInOfficeAgust.take6.output/c8299c3b-6d6e-439b-a35c-db3078cb3f5b.als.out
Reading from standard input... Use '--help' for help.
============================[ Problem Statistics ]=============================
|                                                                             |
|  Number of variables:         87638                                         |
|  Number of clauses:          161767                                         |
|  Parse time:                   0.03 s                                       |
|                                                                             |
============================[ Search Statistics ]==============================
| Conflicts |          ORIGINAL         |          LEARNT          | Progress |
|           |    Vars  Clauses Literals |    Limit  Clauses Lit/Cl |          |
===============================================================================
|       100 |   66413   120016   298735 |    44005      100     12 | 24.219 % |
|       250 |   66413   120016   298735 |    48406      250     13 | 24.219 % |
|       475 |   66413   120016   298735 |    53247      475     28 | 24.219 % |
|       812 |   62592   107139   266918 |    58571      806     42 | 28.579 % |
|      1318 |   62592   107139   266918 |    64428     1312     74 | 28.579 % |
|      2077 |   62573   107068   266734 |    70871     2066     71 | 28.601 % |
|      3216 |   62463   106652   265735 |    77959     3198     72 | 28.726 % |
|      4924 |   62397   106390   265095 |    85754     4807     65 | 28.801 % |
|      7486 |   62396   106385   265083 |    94330     7368     95 | 28.803 % |
|     11330 |   62218   105611   263238 |   103763    11168    101 | 29.006 % |
|     17096 |   62112   105188   262270 |   114139    16908    105 | 29.127 % |
===============================================================================
restarts              : 69
conflicts             : 19866          (7048 /sec)
decisions             : 101938         (0.00 % random) (36167 /sec)
propagations          : 32646340       (11582688 /sec)
conflict literals     : 2201322        (29.87 % deleted)
Memory used           : 45.54 MB
CPU time              : 2.81855 s

INDETERMINATE
